benchmarks/crosswords/mzn/crossword3_1.ozn
output ([(((("\n"++problem_name)++"\n")++"L:")++show(L))++"\n"]++[if problem[i,j]==0 then "*" else show(letters[fix(L[problem[i,j]])]) endif++if j==cols then "\n" else "" endif | i in 1..rows, j in 1..cols, ])++["\n"];
int: rows = 5;
int: cols = 5;
array [1..rows,1..cols] of int: problem = [|1,2,3,4,0|5,6,7,8,9|10,11,12,13,14|15,16,17,18,19|0,20,21,22,23|];
int: num_letters = 26;
array [1..num_letters] of string: letters = ["a","b","c","d","e","f","g","h","i","j","k","l","m","n","o","p","q","r","s","t","u","v","w","x","y","z"];
int: N = 23;
array [0..N] of int: L;
string: problem_name = "05.02, 5 x 5";
